(set-logic AUFDTLIA)
(set-info :smt-lib-version 2.6)
(set-info :source |
Generated by: Shaokai Lin
Generated on: 2021-03-15
Generator: UCLID5
Application: Distributed systems ordering verification
Target Solver: Z3
|)
(set-info :license "https://creativecommons.org/licenses/by/4.0/")
(set-info :category "industrial")
(set-info :status unsat)

(set-option :produce-assignments true)


(declare-datatypes ((_enum_0 0)) (((NULL) (A1))))
(declare-datatypes ((_tuple_1 0)) (((_tuple_1 (__f1 Int) (__f2 Int)))))
(declare-datatypes ((_tuple_0 0)) (((_tuple_0 (__f1 _enum_0) (__f2 _tuple_1)))))
(declare-datatypes ((_tuple_2 0)) (((_tuple_2 (__f1 _tuple_0) (__f2 _tuple_0) (__f3 _tuple_0) (__f4 _tuple_0) (__f5 _tuple_0) (__f6 _tuple_0) (__f7 _tuple_0) (__f8 _tuple_0) (__f9 _tuple_0) (__f10 _tuple_0)))))
(declare-fun initial_1_trace_A () _tuple_2)
(assert (forall ((i Int) (j Int))
   (let ((a!1 (ite (= i 8)
                     (__f9 initial_1_trace_A)
                     (ite (= i 9)
                          (__f10 initial_1_trace_A)
                          (_tuple_0 NULL (_tuple_1 (- 1) (- 1))))))
           (a!5 (ite (= j 8)
                     (__f9 initial_1_trace_A)
                     (ite (= j 9)
                          (__f10 initial_1_trace_A)
                          (_tuple_0 NULL (_tuple_1 (- 1) (- 1)))))))
     (let ((a!2 (ite (= i 5)
                     (__f6 initial_1_trace_A)
                     (ite (= i 6)
                          (__f7 initial_1_trace_A)
                          (ite (= i 7) (__f8 initial_1_trace_A) a!1))))
           (a!6 (ite (= j 5)
                     (__f6 initial_1_trace_A)
                     (ite (= j 6)
                          (__f7 initial_1_trace_A)
                          (ite (= j 7) (__f8 initial_1_trace_A) a!5)))))
     (let ((a!3 (ite (= i 2)
                     (__f3 initial_1_trace_A)
                     (ite (= i 3)
                          (__f4 initial_1_trace_A)
                          (ite (= i 4) (__f5 initial_1_trace_A) a!2))))
           (a!7 (ite (= j 2)
                     (__f3 initial_1_trace_A)
                     (ite (= j 3)
                          (__f4 initial_1_trace_A)
                          (ite (= j 4) (__f5 initial_1_trace_A) a!6)))))
     (let ((a!4 (ite (= i 0)
                     (__f1 initial_1_trace_A)
                     (ite (= i 1) (__f2 initial_1_trace_A) a!3)))
           (a!8 (ite (= j 0)
                     (__f1 initial_1_trace_A)
                     (ite (= j 1) (__f2 initial_1_trace_A) a!7))))
       (or (not (and (>= i 0) (<= i 9) (>= j 0) (<= j 9)))
           (not (= (__f1 a!4) (__f1 a!8)))
           (not (= (__f2 a!4) (__f2 a!8)))
           (= i j))))))
     
     ))
(assert (forall ((i Int) (j Int))
   (let ((a!1 (ite (= i 8)
                     (__f9 initial_1_trace_A)
                     (ite (= i 9)
                          (__f10 initial_1_trace_A)
                          (_tuple_0 NULL (_tuple_1 (- 1) (- 1))))))
           (a!5 (ite (= j 8)
                     (__f9 initial_1_trace_A)
                     (ite (= j 9)
                          (__f10 initial_1_trace_A)
                          (_tuple_0 NULL (_tuple_1 (- 1) (- 1))))))
           (a!9 (exists ((k Int))
                   (let ((a!1 (ite (= k 8)
                                     (__f9 initial_1_trace_A)
                                     (ite (= k 9)
                                          (__f10 initial_1_trace_A)
                                          (_tuple_0 NULL (_tuple_1 (- 1) (- 1))))))
                           (a!5 (ite (= i 8)
                                     (__f9 initial_1_trace_A)
                                     (ite (= i 9)
                                          (__f10 initial_1_trace_A)
                                          (_tuple_0 NULL (_tuple_1 (- 1) (- 1)))))))
                     (let ((a!2 (ite (= k 5)
                                     (__f6 initial_1_trace_A)
                                     (ite (= k 6)
                                          (__f7 initial_1_trace_A)
                                          (ite (= k 7)
                                               (__f8 initial_1_trace_A)
                                               a!1))))
                           (a!6 (ite (= i 5)
                                     (__f6 initial_1_trace_A)
                                     (ite (= i 6)
                                          (__f7 initial_1_trace_A)
                                          (ite (= i 7)
                                               (__f8 initial_1_trace_A)
                                               a!5)))))
                     (let ((a!3 (ite (= k 2)
                                     (__f3 initial_1_trace_A)
                                     (ite (= k 3)
                                          (__f4 initial_1_trace_A)
                                          (ite (= k 4)
                                               (__f5 initial_1_trace_A)
                                               a!2))))
                           (a!7 (ite (= i 2)
                                     (__f3 initial_1_trace_A)
                                     (ite (= i 3)
                                          (__f4 initial_1_trace_A)
                                          (ite (= i 4)
                                               (__f5 initial_1_trace_A)
                                               a!6)))))
                     (let ((a!4 (ite (= k 0)
                                     (__f1 initial_1_trace_A)
                                     (ite (= k 1) (__f2 initial_1_trace_A) a!3)))
                           (a!8 (__f1 (ite (= i 0)
                                           (__f1 initial_1_trace_A)
                                           (ite (= i 1)
                                                (__f2 initial_1_trace_A)
                                                a!7)))))
                       (and (not (<= k i)) (not (<= j k)) (= (__f1 a!4) a!8))))))
                     
                     )))
     (let ((a!2 (ite (= i 5)
                     (__f6 initial_1_trace_A)
                     (ite (= i 6)
                          (__f7 initial_1_trace_A)
                          (ite (= i 7) (__f8 initial_1_trace_A) a!1))))
           (a!6 (ite (= j 5)
                     (__f6 initial_1_trace_A)
                     (ite (= j 6)
                          (__f7 initial_1_trace_A)
                          (ite (= j 7) (__f8 initial_1_trace_A) a!5)))))
     (let ((a!3 (ite (= i 2)
                     (__f3 initial_1_trace_A)
                     (ite (= i 3)
                          (__f4 initial_1_trace_A)
                          (ite (= i 4) (__f5 initial_1_trace_A) a!2))))
           (a!7 (ite (= j 2)
                     (__f3 initial_1_trace_A)
                     (ite (= j 3)
                          (__f4 initial_1_trace_A)
                          (ite (= j 4) (__f5 initial_1_trace_A) a!6)))))
     (let ((a!4 (ite (= i 0)
                     (__f1 initial_1_trace_A)
                     (ite (= i 1) (__f2 initial_1_trace_A) a!3)))
           (a!8 (ite (= j 0)
                     (__f1 initial_1_trace_A)
                     (ite (= j 1) (__f2 initial_1_trace_A) a!7))))
     (let ((a!10 (not (and (= (__f1 a!4) (__f1 a!8)) (not (<= j i)) (not a!9))))
           (a!11 (not (<= (__f1 (__f2 a!4)) (__f1 (__f2 a!8)))))
           (a!12 (not (<= (__f2 (__f2 a!4)) (__f2 (__f2 a!8)))))
           (a!14 (+ (__f1 (__f2 a!4)) (* (- 1) (__f1 (__f2 a!8)))))
           (a!15 (+ (__f1 (__f2 a!8)) (* (- 1) (__f1 (__f2 a!4))))))
     (let ((a!13 (and (= (__f1 (__f2 a!4)) (__f1 (__f2 a!8))) a!12)))
       (or (not (and (>= i 0) (<= i 9) (>= j 0) (<= j 9)))
           a!10
           (>= (ite (or a!11 a!13) a!14 a!15) 10))))))))
     
     ))
(assert (forall ((i Int))
   (let ((a!1 (ite (= i 8)
                     (__f9 initial_1_trace_A)
                     (ite (= i 9)
                          (__f10 initial_1_trace_A)
                          (_tuple_0 NULL (_tuple_1 (- 1) (- 1)))))))
     (let ((a!2 (ite (= i 5)
                     (__f6 initial_1_trace_A)
                     (ite (= i 6)
                          (__f7 initial_1_trace_A)
                          (ite (= i 7) (__f8 initial_1_trace_A) a!1)))))
     (let ((a!3 (ite (= i 2)
                     (__f3 initial_1_trace_A)
                     (ite (= i 3)
                          (__f4 initial_1_trace_A)
                          (ite (= i 4) (__f5 initial_1_trace_A) a!2)))))
     (let ((a!4 (__f1 (ite (= i 0)
                           (__f1 initial_1_trace_A)
                           (ite (= i 1) (__f2 initial_1_trace_A) a!3)))))
       (or (not (and (>= i 0) (<= i 9))) (= a!4 NULL) (= a!4 A1))))))
     
     ))
(assert (forall ((i Int) (j Int))
   (let ((a!1 (ite (= i 8)
                     (__f9 initial_1_trace_A)
                     (ite (= i 9)
                          (__f10 initial_1_trace_A)
                          (_tuple_0 NULL (_tuple_1 (- 1) (- 1))))))
           (a!5 (ite (= j 8)
                     (__f9 initial_1_trace_A)
                     (ite (= j 9)
                          (__f10 initial_1_trace_A)
                          (_tuple_0 NULL (_tuple_1 (- 1) (- 1))))))
           (a!9 (not (and (not (<= j i)) (>= i 0) (<= i 9) (>= j 0) (<= j 9)))))
     (let ((a!2 (ite (= i 5)
                     (__f6 initial_1_trace_A)
                     (ite (= i 6)
                          (__f7 initial_1_trace_A)
                          (ite (= i 7) (__f8 initial_1_trace_A) a!1))))
           (a!6 (ite (= j 5)
                     (__f6 initial_1_trace_A)
                     (ite (= j 6)
                          (__f7 initial_1_trace_A)
                          (ite (= j 7) (__f8 initial_1_trace_A) a!5)))))
     (let ((a!3 (ite (= i 2)
                     (__f3 initial_1_trace_A)
                     (ite (= i 3)
                          (__f4 initial_1_trace_A)
                          (ite (= i 4) (__f5 initial_1_trace_A) a!2))))
           (a!7 (ite (= j 2)
                     (__f3 initial_1_trace_A)
                     (ite (= j 3)
                          (__f4 initial_1_trace_A)
                          (ite (= j 4) (__f5 initial_1_trace_A) a!6)))))
     (let ((a!4 (__f2 (ite (= i 0)
                           (__f1 initial_1_trace_A)
                           (ite (= i 1) (__f2 initial_1_trace_A) a!3))))
           (a!8 (__f2 (ite (= j 0)
                           (__f1 initial_1_trace_A)
                           (ite (= j 1) (__f2 initial_1_trace_A) a!7)))))
     (let ((a!10 (and (= (__f1 a!4) (__f1 a!8))
                      (not (<= (__f2 a!4) (__f2 a!8))))))
     (let ((a!11 (or (not (<= (__f1 a!4) (__f1 a!8))) a!10)))
       (or (= a!4 a!8) a!9 (and (not a!11) (not (= a!4 a!8))))))))))
     
     ))
(assert (forall ((i Int))
   (let ((a!1 (ite (= i 8)
                     (__f9 initial_1_trace_A)
                     (ite (= i 9)
                          (__f10 initial_1_trace_A)
                          (_tuple_0 NULL (_tuple_1 (- 1) (- 1)))))))
     (let ((a!2 (ite (= i 5)
                     (__f6 initial_1_trace_A)
                     (ite (= i 6)
                          (__f7 initial_1_trace_A)
                          (ite (= i 7) (__f8 initial_1_trace_A) a!1)))))
     (let ((a!3 (ite (= i 2)
                     (__f3 initial_1_trace_A)
                     (ite (= i 3)
                          (__f4 initial_1_trace_A)
                          (ite (= i 4) (__f5 initial_1_trace_A) a!2)))))
     (let ((a!4 (__f2 (ite (= i 0)
                           (__f1 initial_1_trace_A)
                           (ite (= i 1) (__f2 initial_1_trace_A) a!3)))))
       (or (not (and (>= i 0) (<= i 9)))
           (and (>= (__f1 a!4) 0) (>= (__f2 a!4) 0)))))))
     
     ))
(assert (not (forall ((i Int) (j Int))
        (let ((a!1 (ite (= i 8)
                          (__f9 initial_1_trace_A)
                          (ite (= i 9)
                               (__f10 initial_1_trace_A)
                               (_tuple_0 NULL (_tuple_1 (- 1) (- 1))))))
                (a!6 (ite (= j 8)
                          (__f9 initial_1_trace_A)
                          (ite (= j 9)
                               (__f10 initial_1_trace_A)
                               (_tuple_0 NULL (_tuple_1 (- 1) (- 1))))))
                (a!10 (exists ((k Int))
                         (let ((a!1 (ite (= k 8)
                                           (__f9 initial_1_trace_A)
                                           (ite (= k 9)
                                                (__f10 initial_1_trace_A)
                                                (_tuple_0 NULL
                                                          (_tuple_1 (- 1) (- 1)))))))
                           (let ((a!2 (ite (= k 5)
                                           (__f6 initial_1_trace_A)
                                           (ite (= k 6)
                                                (__f7 initial_1_trace_A)
                                                (ite (= k 7)
                                                     (__f8 initial_1_trace_A)
                                                     a!1)))))
                           (let ((a!3 (ite (= k 2)
                                           (__f3 initial_1_trace_A)
                                           (ite (= k 3)
                                                (__f4 initial_1_trace_A)
                                                (ite (= k 4)
                                                     (__f5 initial_1_trace_A)
                                                     a!2)))))
                           (let ((a!4 (ite (= k 0)
                                           (__f1 initial_1_trace_A)
                                           (ite (= k 1)
                                                (__f2 initial_1_trace_A)
                                                a!3))))
                             (and (not (<= k i))
                                  (not (<= j k))
                                  (= (__f1 a!4) A1))))))
                           
                           )))
          (let ((a!2 (ite (= i 5)
                          (__f6 initial_1_trace_A)
                          (ite (= i 6)
                               (__f7 initial_1_trace_A)
                               (ite (= i 7) (__f8 initial_1_trace_A) a!1))))
                (a!7 (ite (= j 5)
                          (__f6 initial_1_trace_A)
                          (ite (= j 6)
                               (__f7 initial_1_trace_A)
                               (ite (= j 7) (__f8 initial_1_trace_A) a!6)))))
          (let ((a!3 (ite (= i 2)
                          (__f3 initial_1_trace_A)
                          (ite (= i 3)
                               (__f4 initial_1_trace_A)
                               (ite (= i 4) (__f5 initial_1_trace_A) a!2))))
                (a!8 (ite (= j 2)
                          (__f3 initial_1_trace_A)
                          (ite (= j 3)
                               (__f4 initial_1_trace_A)
                               (ite (= j 4) (__f5 initial_1_trace_A) a!7)))))
          (let ((a!4 (ite (= i 0)
                          (__f1 initial_1_trace_A)
                          (ite (= i 1) (__f2 initial_1_trace_A) a!3)))
                (a!9 (ite (= j 0)
                          (__f1 initial_1_trace_A)
                          (ite (= j 1) (__f2 initial_1_trace_A) a!8))))
          (let ((a!5 (not (<= (__f1 (__f2 a!4)) 0)))
                (a!12 (+ (__f1 (__f2 a!9)) (* (- 1) (__f1 (__f2 a!4))))))
          (let ((a!11 (not (and a!5
                                (not (<= j i))
                                (= (__f1 a!4) A1)
                                (= (__f1 a!9) A1)
                                (not a!10)))))
            (or a!11 (>= a!12 10))))))))
          
          )))


(check-sat)

(exit)
